(set-info :status unknown)
(declare-fun %Y () (_ BitVec 10))
(declare-fun %X () (_ BitVec 10))
(assert
 (let (($x9693 (and (distinct (bvudiv ((_ zero_extend 33) %X) ((_ zero_extend 33) %Y)) ((_ zero_extend 33) (bvudiv %X %Y))) true)))
 (and (and (distinct ((_ zero_extend 33) %Y) (_ bv0 43)) true) $x9693)))
(check-sat)
